param n := 120;
param c := 1000;
param : V : p w :=
   0	  34	 366
   1	   5	 268
   2	  24	 366
   3	  99	 430
   4	  33	 263
   5	  85	 307
   6	  23	 414
   7	   3	 287
   8	  62	 299
   9	  63	 495
  10	  13	 251
  11	  43	 254
  12	  52	 474
  13	  25	 252
  14	  49	 274
  15	  70	 370
  16	  25	 269
  17	  57	 361
  18	  35	 473
  19	 100	 252
  20	  32	 275
  21	  57	 472
  22	  74	 259
  23	   1	 269
  24	  18	 444
  25	  33	 258
  26	  53	 298
  27	   9	 439
  28	   2	 273
  29	  31	 288
  30	  17	 445
  31	  49	 272
  32	  44	 283
  33	  65	 419
  34	  80	 261
  35	  10	 320
  36	  36	 363
  37	  21	 271
  38	  50	 366
  39	  96	 355
  40	  93	 273
  41	   9	 372
  42	  96	 466
  43	  79	 262
  44	  47	 272
  45	  94	 357
  46	  65	 292
  47	  74	 351
  48	  10	 395
  49	  68	 255
  50	  94	 350
  51	  56	 350
  52	  87	 303
  53	  24	 347
  54	  16	 450
  55	  35	 252
  56	  33	 298
  57	  81	 410
  58	  40	 275
  59	  70	 315
  60	  70	 407
  61	  72	 260
  62	  30	 333
  63	  64	 366
  64	  36	 271
  65	  97	 363
  66	  74	 350
  67	  85	 294
  68	   2	 356
  69	  40	 480
  70	   6	 253
  71	  63	 267
  72	  44	 446
  73	  76	 259
  74	   3	 295
  75	  50	 376
  76	  15	 267
  77	  59	 357
  78	  28	 366
  79	  74	 282
  80	 100	 352
  81	  68	 478
  82	 100	 256
  83	  26	 266
  84	  68	 420
  85	  81	 251
  86	  83	 329
  87	  25	 434
  88	  99	 252
  89	  66	 314
  90	  42	 470
  91	  84	 254
  92	  30	 276
  93	  55	 497
  94	  55	 250
  95	  27	 253
  96	  51	 497
  97	  64	 250
  98	  70	 253
  99	  39	 445
 100	  11	 254
 101	  50	 301
 102	  67	 412
 103	  97	 263
 104	  94	 325
 105	  23	 400
 106	  91	 298
 107	  24	 302
 108	  20	 362
 109	  78	 282
 110	  57	 356
 111	  21	 405
 112	  54	 259
 113	  90	 336
 114	  55	 397
 115	  51	 290
 116	  31	 313
 117	  82	 485
 118	  84	 253
 119	  63	 262
;

set E :=
   0	   1
   0	  12
   0	  13
   0	  14
   0	  15
   0	  16
   0	  19
   0	  30
   0	  31
   0	  37
   0	  39
   0	  42
   0	  43
   0	  46
   0	  47
   0	  48
   0	  52
   0	  54
   0	  60
   0	  62
   0	  65
   0	  68
   0	  73
   0	  78
   0	  79
   0	  80
   0	  81
   0	  82
   0	  84
   0	  86
   0	  89
   0	  93
   0	  97
   0	  99
   0	 101
   0	 102
   0	 106
   0	 118
   1	   2
   1	   6
   1	  13
   1	  14
   1	  16
   1	  21
   1	  23
   1	  24
   1	  26
   1	  28
   1	  41
   1	  42
   1	  46
   1	  50
   1	  52
   1	  53
   1	  55
   1	  56
   1	  58
   1	  59
   1	  61
   1	  64
   1	  66
   1	  67
   1	  68
   1	  73
   1	  74
   1	  78
   1	  79
   1	  82
   1	  83
   1	  85
   1	  87
   1	  90
   1	  96
   1	 103
   1	 106
   1	 110
   1	 112
   1	 113
   1	 114
   1	 116
   1	 118
   2	   6
   2	   7
   2	  17
   2	  20
   2	  21
   2	  22
   2	  27
   2	  35
   2	  36
   2	  41
   2	  44
   2	  62
   2	  66
   2	  68
   2	  69
   2	  70
   2	  74
   2	  77
   2	  78
   2	  80
   2	  84
   2	  88
   2	  91
   2	  92
   2	  96
   2	  98
   2	  99
   2	 102
   2	 103
   2	 105
   2	 111
   2	 112
   2	 115
   2	 117
   3	   5
   3	  13
   3	  17
   3	  18
   3	  24
   3	  25
   3	  26
   3	  30
   3	  32
   3	  37
   3	  40
   3	  42
   3	  45
   3	  53
   3	  55
   3	  60
   3	  66
   3	  67
   3	  71
   3	  74
   3	  76
   3	  82
   3	  85
   3	  86
   3	  90
   3	  93
   3	  96
   3	  97
   3	 103
   3	 110
   3	 113
   3	 117
   4	  11
   4	  15
   4	  17
   4	  23
   4	  24
   4	  27
   4	  28
   4	  30
   4	  41
   4	  48
   4	  58
   4	  66
   4	  72
   4	  76
   4	  77
   4	  79
   4	  80
   4	  81
   4	  84
   4	  88
   4	  95
   4	 100
   4	 101
   4	 105
   4	 106
   4	 107
   4	 109
   4	 110
   4	 111
   4	 112
   4	 115
   4	 117
   4	 118
   4	 119
   5	  12
   5	  17
   5	  18
   5	  20
   5	  21
   5	  23
   5	  25
   5	  28
   5	  30
   5	  31
   5	  32
   5	  33
   5	  38
   5	  41
   5	  42
   5	  46
   5	  48
   5	  50
   5	  52
   5	  55
   5	  57
   5	  68
   5	  72
   5	  73
   5	  76
   5	  77
   5	  79
   5	  82
   5	  86
   5	  88
   5	  90
   5	  91
   5	  96
   5	 103
   5	 105
   5	 107
   5	 111
   5	 115
   5	 116
   5	 118
   6	  10
   6	  12
   6	  18
   6	  22
   6	  29
   6	  44
   6	  46
   6	  49
   6	  59
   6	  61
   6	  62
   6	  67
   6	  69
   6	  75
   6	  84
   6	  87
   6	  90
   6	  91
   6	  97
   6	  98
   6	 100
   6	 105
   6	 107
   6	 108
   6	 114
   6	 119
   7	  13
   7	  19
   7	  20
   7	  23
   7	  26
   7	  28
   7	  35
   7	  36
   7	  38
   7	  39
   7	  42
   7	  44
   7	  54
   7	  57
   7	  58
   7	  61
   7	  63
   7	  64
   7	  69
   7	  73
   7	  74
   7	  78
   7	  86
   7	  87
   7	  91
   7	  96
   7	 111
   7	 112
   7	 113
   7	 115
   7	 116
   8	  12
   8	  16
   8	  18
   8	  20
   8	  21
   8	  26
   8	  28
   8	  39
   8	  43
   8	  51
   8	  52
   8	  53
   8	  60
   8	  64
   8	  66
   8	  67
   8	  71
   8	  87
   8	  88
   8	  89
   8	  90
   8	  91
   8	  92
   8	  95
   8	  97
   8	 108
   8	 110
   8	 112
   9	  11
   9	  13
   9	  15
   9	  16
   9	  20
   9	  27
   9	  33
   9	  34
   9	  38
   9	  40
   9	  42
   9	  43
   9	  46
   9	  59
   9	  62
   9	  65
   9	  67
   9	  71
   9	  75
   9	  76
   9	  77
   9	  92
   9	  94
   9	  95
   9	  98
   9	 100
   9	 102
   9	 103
   9	 105
   9	 107
   9	 112
  10	  11
  10	  12
  10	  13
  10	  24
  10	  31
  10	  32
  10	  33
  10	  35
  10	  36
  10	  41
  10	  42
  10	  45
  10	  51
  10	  56
  10	  59
  10	  62
  10	  67
  10	  68
  10	  74
  10	  76
  10	  77
  10	  78
  10	  83
  10	  86
  10	  89
  10	  92
  10	  94
  10	  96
  10	  98
  10	  99
  10	 103
  10	 106
  10	 107
  10	 115
  10	 116
  11	  12
  11	  15
  11	  25
  11	  29
  11	  31
  11	  33
  11	  40
  11	  48
  11	  51
  11	  58
  11	  67
  11	  72
  11	  78
  11	  79
  11	  83
  11	  84
  11	  87
  11	  91
  11	  92
  11	  94
  11	  95
  11	 102
  11	 103
  11	 106
  11	 107
  11	 112
  11	 113
  11	 114
  11	 117
  11	 118
  12	  14
  12	  25
  12	  26
  12	  28
  12	  34
  12	  35
  12	  39
  12	  43
  12	  45
  12	  52
  12	  53
  12	  56
  12	  63
  12	  65
  12	  66
  12	  69
  12	  71
  12	  73
  12	  81
  12	  83
  12	  88
  12	  90
  12	  91
  12	  92
  12	 100
  12	 101
  12	 104
  12	 105
  12	 110
  12	 113
  12	 114
  12	 118
  13	  17
  13	  18
  13	  19
  13	  21
  13	  22
  13	  24
  13	  26
  13	  30
  13	  33
  13	  37
  13	  44
  13	  47
  13	  49
  13	  50
  13	  52
  13	  53
  13	  54
  13	  55
  13	  56
  13	  64
  13	  67
  13	  68
  13	  76
  13	  79
  13	  80
  13	  85
  13	  86
  13	  93
  13	  98
  13	  99
  13	 102
  13	 108
  13	 110
  13	 111
  13	 113
  13	 116
  13	 118
  13	 119
  14	  25
  14	  30
  14	  32
  14	  33
  14	  35
  14	  36
  14	  37
  14	  38
  14	  40
  14	  41
  14	  46
  14	  57
  14	  59
  14	  60
  14	  63
  14	  64
  14	  66
  14	  70
  14	  71
  14	  74
  14	  77
  14	  79
  14	  80
  14	  86
  14	  90
  14	  93
  14	  95
  14	  97
  14	 107
  14	 110
  14	 114
  14	 116
  15	  25
  15	  27
  15	  32
  15	  35
  15	  37
  15	  40
  15	  42
  15	  46
  15	  48
  15	  52
  15	  54
  15	  57
  15	  62
  15	  64
  15	  70
  15	  71
  15	  72
  15	  78
  15	  79
  15	  92
  15	  93
  15	  96
  15	  97
  15	  98
  15	 100
  15	 102
  15	 105
  15	 106
  15	 107
  15	 116
  15	 117
  16	  17
  16	  26
  16	  28
  16	  30
  16	  32
  16	  35
  16	  36
  16	  40
  16	  46
  16	  48
  16	  49
  16	  52
  16	  54
  16	  55
  16	  57
  16	  62
  16	  63
  16	  65
  16	  66
  16	  69
  16	  71
  16	  72
  16	  74
  16	  75
  16	  76
  16	  77
  16	  82
  16	  88
  16	  97
  16	 101
  16	 103
  16	 106
  16	 115
  16	 116
  16	 118
  17	  21
  17	  36
  17	  43
  17	  44
  17	  45
  17	  50
  17	  53
  17	  54
  17	  55
  17	  64
  17	  67
  17	  70
  17	  72
  17	  73
  17	  75
  17	  77
  17	  78
  17	  80
  17	  84
  17	  85
  17	  86
  17	  95
  17	  96
  17	  99
  17	 101
  17	 115
  17	 116
  18	  21
  18	  22
  18	  23
  18	  26
  18	  29
  18	  31
  18	  32
  18	  33
  18	  36
  18	  38
  18	  44
  18	  45
  18	  47
  18	  59
  18	  66
  18	  70
  18	  75
  18	  76
  18	  77
  18	  89
  18	  91
  18	  92
  18	  99
  18	 110
  18	 114
  18	 116
  18	 117
  19	  21
  19	  22
  19	  24
  19	  28
  19	  29
  19	  34
  19	  37
  19	  43
  19	  46
  19	  49
  19	  60
  19	  61
  19	  64
  19	  65
  19	  68
  19	  78
  19	  79
  19	  80
  19	  85
  19	  87
  19	  94
  19	  96
  19	  99
  19	 103
  19	 104
  19	 105
  19	 106
  19	 112
  20	  21
  20	  35
  20	  36
  20	  40
  20	  46
  20	  47
  20	  51
  20	  52
  20	  54
  20	  57
  20	  59
  20	  61
  20	  63
  20	  69
  20	  70
  20	  72
  20	  73
  20	  78
  20	  81
  20	  82
  20	  83
  20	  91
  20	  93
  20	  96
  20	  98
  20	  99
  20	 102
  20	 107
  20	 114
  20	 115
  20	 117
  20	 119
  21	  24
  21	  27
  21	  32
  21	  33
  21	  35
  21	  36
  21	  39
  21	  40
  21	  43
  21	  47
  21	  48
  21	  49
  21	  52
  21	  58
  21	  61
  21	  72
  21	  73
  21	  76
  21	  77
  21	  78
  21	  79
  21	  83
  21	  86
  21	  87
  21	  89
  21	  92
  21	  93
  21	  97
  21	 100
  21	 101
  21	 105
  21	 106
  21	 109
  21	 111
  21	 113
  22	  23
  22	  27
  22	  33
  22	  34
  22	  38
  22	  47
  22	  49
  22	  51
  22	  56
  22	  60
  22	  68
  22	  72
  22	  76
  22	  84
  22	  93
  22	  94
  22	  95
  22	  98
  22	 101
  22	 102
  22	 103
  22	 104
  22	 110
  23	  25
  23	  26
  23	  27
  23	  29
  23	  33
  23	  38
  23	  42
  23	  47
  23	  48
  23	  52
  23	  53
  23	  55
  23	  62
  23	  67
  23	  69
  23	  81
  23	  82
  23	  86
  23	  87
  23	  90
  23	  91
  23	 102
  23	 104
  23	 105
  23	 107
  23	 108
  23	 110
  23	 111
  23	 119
  24	  25
  24	  27
  24	  30
  24	  36
  24	  42
  24	  43
  24	  47
  24	  49
  24	  51
  24	  52
  24	  54
  24	  56
  24	  58
  24	  62
  24	  68
  24	  77
  24	  79
  24	  81
  24	  90
  24	  95
  24	  97
  24	 105
  24	 110
  24	 112
  24	 115
  24	 116
  25	  31
  25	  32
  25	  33
  25	  48
  25	  51
  25	  52
  25	  54
  25	  55
  25	  59
  25	  60
  25	  62
  25	  64
  25	  66
  25	  67
  25	  68
  25	  75
  25	  77
  25	  79
  25	  80
  25	  82
  25	  84
  25	  86
  25	  89
  25	  91
  25	  97
  25	 101
  25	 104
  25	 112
  25	 115
  25	 119
  26	  30
  26	  35
  26	  38
  26	  39
  26	  42
  26	  43
  26	  46
  26	  49
  26	  50
  26	  54
  26	  55
  26	  66
  26	  67
  26	  70
  26	  75
  26	  80
  26	  81
  26	  82
  26	  93
  26	  94
  26	  97
  26	 100
  26	 106
  26	 109
  26	 112
  26	 117
  26	 118
  26	 119
  27	  28
  27	  30
  27	  31
  27	  34
  27	  37
  27	  40
  27	  41
  27	  42
  27	  52
  27	  55
  27	  56
  27	  58
  27	  61
  27	  63
  27	  67
  27	  70
  27	  71
  27	  74
  27	  76
  27	  77
  27	  80
  27	  81
  27	  84
  27	  90
  27	  91
  27	  95
  27	  98
  27	  99
  27	 102
  27	 104
  27	 106
  27	 108
  27	 112
  27	 116
  27	 119
  28	  32
  28	  36
  28	  38
  28	  43
  28	  44
  28	  45
  28	  47
  28	  51
  28	  53
  28	  57
  28	  59
  28	  70
  28	  72
  28	  77
  28	  79
  28	  84
  28	  88
  28	  90
  28	  92
  28	  98
  28	 101
  28	 102
  28	 103
  28	 106
  28	 109
  28	 113
  28	 115
  28	 117
  29	  31
  29	  32
  29	  33
  29	  35
  29	  41
  29	  43
  29	  45
  29	  46
  29	  48
  29	  50
  29	  52
  29	  54
  29	  57
  29	  60
  29	  65
  29	  67
  29	  69
  29	  71
  29	  73
  29	  74
  29	  76
  29	  80
  29	  83
  29	  86
  29	  92
  29	  94
  29	 103
  29	 109
  29	 113
  29	 115
  30	  33
  30	  34
  30	  45
  30	  49
  30	  50
  30	  56
  30	  64
  30	  66
  30	  69
  30	  74
  30	  75
  30	  77
  30	  79
  30	  82
  30	  83
  30	  85
  30	  95
  30	 100
  30	 103
  30	 106
  30	 107
  30	 109
  30	 112
  30	 114
  30	 118
  31	  32
  31	  33
  31	  36
  31	  37
  31	  38
  31	  43
  31	  44
  31	  45
  31	  46
  31	  48
  31	  50
  31	  54
  31	  56
  31	  58
  31	  59
  31	  60
  31	  64
  31	  65
  31	  71
  31	  79
  31	  81
  31	  82
  31	  84
  31	  88
  31	  89
  31	 101
  31	 103
  31	 104
  31	 110
  31	 115
  32	  33
  32	  34
  32	  35
  32	  39
  32	  43
  32	  46
  32	  47
  32	  49
  32	  53
  32	  55
  32	  61
  32	  62
  32	  64
  32	  66
  32	  67
  32	  75
  32	  80
  32	  92
  32	  94
  32	  97
  32	  98
  32	 103
  32	 106
  32	 109
  32	 112
  33	  34
  33	  36
  33	  39
  33	  41
  33	  45
  33	  46
  33	  47
  33	  54
  33	  55
  33	  56
  33	  57
  33	  61
  33	  73
  33	  75
  33	  79
  33	  80
  33	  83
  33	  85
  33	  87
  33	  93
  33	  94
  33	  99
  33	 103
  33	 104
  33	 105
  33	 117
  34	  36
  34	  39
  34	  53
  34	  56
  34	  60
  34	  69
  34	  86
  34	  87
  34	  91
  34	  97
  34	  99
  34	 106
  34	 110
  34	 118
  34	 119
  35	  38
  35	  43
  35	  48
  35	  54
  35	  55
  35	  57
  35	  63
  35	  74
  35	  75
  35	  77
  35	  81
  35	  85
  35	  87
  35	  89
  35	  96
  35	  97
  35	  99
  35	 100
  35	 104
  35	 106
  35	 111
  35	 114
  35	 115
  35	 117
  36	  37
  36	  38
  36	  46
  36	  50
  36	  54
  36	  59
  36	  67
  36	  68
  36	  71
  36	  77
  36	  79
  36	  80
  36	  81
  36	  83
  36	  84
  36	  89
  36	  90
  36	  91
  36	  92
  36	  94
  36	 101
  36	 104
  36	 105
  36	 106
  36	 108
  36	 112
  36	 114
  36	 116
  36	 118
  37	  42
  37	  47
  37	  48
  37	  54
  37	  55
  37	  56
  37	  58
  37	  61
  37	  63
  37	  65
  37	  76
  37	  77
  37	  78
  37	  80
  37	  85
  37	  89
  37	  90
  37	  91
  37	  96
  37	  97
  37	  98
  37	 113
  37	 115
  37	 117
  38	  45
  38	  46
  38	  48
  38	  49
  38	  53
  38	  54
  38	  62
  38	  70
  38	  71
  38	  73
  38	  76
  38	  82
  38	  84
  38	  85
  38	  88
  38	  91
  38	  92
  38	  97
  38	  99
  38	 100
  38	 102
  38	 105
  38	 109
  38	 110
  38	 111
  38	 112
  38	 113
  38	 116
  38	 117
  39	  49
  39	  50
  39	  56
  39	  57
  39	  59
  39	  63
  39	  64
  39	  65
  39	  74
  39	  76
  39	  77
  39	  79
  39	  80
  39	  83
  39	  86
  39	  88
  39	  89
  39	  92
  39	  94
  39	  95
  39	  96
  39	 101
  39	 104
  39	 105
  39	 106
  39	 111
  39	 113
  39	 115
  40	  44
  40	  47
  40	  49
  40	  51
  40	  52
  40	  53
  40	  55
  40	  56
  40	  57
  40	  58
  40	  60
  40	  62
  40	  63
  40	  73
  40	  74
  40	  80
  40	  85
  40	  87
  40	  90
  40	  93
  40	  99
  40	 100
  40	 101
  40	 105
  40	 106
  40	 109
  40	 110
  40	 114
  40	 117
  41	  43
  41	  44
  41	  45
  41	  47
  41	  52
  41	  53
  41	  56
  41	  61
  41	  62
  41	  66
  41	  69
  41	  76
  41	  78
  41	  79
  41	  80
  41	  81
  41	  83
  41	  85
  41	  86
  41	  95
  41	  97
  41	  98
  41	 100
  41	 105
  41	 106
  41	 108
  41	 110
  41	 112
  41	 119
  42	  43
  42	  47
  42	  48
  42	  52
  42	  54
  42	  56
  42	  60
  42	  62
  42	  66
  42	  77
  42	  79
  42	  80
  42	  82
  42	  85
  42	  90
  42	  92
  42	  93
  42	 102
  42	 108
  42	 109
  42	 112
  42	 113
  43	  45
  43	  46
  43	  52
  43	  53
  43	  56
  43	  57
  43	  58
  43	  59
  43	  62
  43	  65
  43	  66
  43	  67
  43	  70
  43	  72
  43	  73
  43	  76
  43	  83
  43	  84
  43	  85
  43	  86
  43	  97
  43	 104
  43	 110
  43	 118
  44	  45
  44	  46
  44	  57
  44	  59
  44	  64
  44	  65
  44	  67
  44	  68
  44	  69
  44	  70
  44	  74
  44	  82
  44	  84
  44	  89
  44	  91
  44	 100
  44	 110
  44	 113
  44	 115
  44	 119
  45	  46
  45	  50
  45	  51
  45	  52
  45	  57
  45	  59
  45	  60
  45	  67
  45	  68
  45	  71
  45	  73
  45	  76
  45	  79
  45	  85
  45	  86
  45	  87
  45	  89
  45	  90
  45	  94
  45	  96
  45	  99
  45	 100
  45	 103
  45	 105
  45	 107
  45	 111
  45	 114
  45	 115
  45	 117
  46	  48
  46	  50
  46	  61
  46	  62
  46	  69
  46	  70
  46	  73
  46	  75
  46	  77
  46	  78
  46	  80
  46	  85
  46	  86
  46	  93
  46	  98
  46	 102
  46	 105
  46	 106
  46	 107
  46	 110
  46	 116
  47	  48
  47	  49
  47	  50
  47	  56
  47	  59
  47	  65
  47	  69
  47	  70
  47	  77
  47	  82
  47	  84
  47	  85
  47	  86
  47	  87
  47	  92
  47	  96
  47	 101
  47	 105
  47	 108
  47	 115
  47	 116
  47	 117
  47	 118
  48	  50
  48	  52
  48	  53
  48	  55
  48	  57
  48	  59
  48	  63
  48	  64
  48	  65
  48	  68
  48	  69
  48	  72
  48	  74
  48	  77
  48	  78
  48	  81
  48	  92
  48	  93
  48	  94
  48	  97
  48	 103
  48	 105
  48	 106
  48	 108
  48	 112
  48	 113
  49	  50
  49	  53
  49	  54
  49	  57
  49	  59
  49	  62
  49	  63
  49	  65
  49	  70
  49	  72
  49	  78
  49	  85
  49	  86
  49	  91
  49	  93
  49	  94
  49	  98
  49	 100
  49	 101
  49	 104
  49	 107
  49	 110
  49	 114
  49	 115
  49	 116
  49	 119
  50	  51
  50	  54
  50	  60
  50	  62
  50	  63
  50	  64
  50	  66
  50	  67
  50	  68
  50	  70
  50	  71
  50	  74
  50	  77
  50	  78
  50	  86
  50	  89
  50	  91
  50	  94
  50	  97
  50	 103
  50	 105
  50	 106
  50	 116
  50	 119
  51	  53
  51	  54
  51	  57
  51	  61
  51	  62
  51	  63
  51	  66
  51	  68
  51	  71
  51	  74
  51	  77
  51	  83
  51	  84
  51	  91
  51	  92
  51	  93
  51	  97
  51	 100
  51	 101
  51	 109
  51	 112
  51	 114
  51	 115
  51	 116
  51	 119
  52	  54
  52	  59
  52	  67
  52	  70
  52	  78
  52	  82
  52	  84
  52	  87
  52	  88
  52	  90
  52	  99
  52	 103
  52	 105
  52	 106
  52	 110
  52	 113
  53	  55
  53	  56
  53	  58
  53	  65
  53	  66
  53	  72
  53	  73
  53	  75
  53	  80
  53	  82
  53	  84
  53	  86
  53	  87
  53	  93
  53	  98
  53	  99
  53	 101
  53	 104
  53	 109
  53	 110
  53	 113
  53	 117
  53	 119
  54	  57
  54	  58
  54	  64
  54	  72
  54	  75
  54	  79
  54	  81
  54	  83
  54	  88
  54	  93
  54	  97
  54	 104
  54	 106
  54	 114
  54	 117
  54	 118
  55	  65
  55	  66
  55	  69
  55	  70
  55	  74
  55	  75
  55	  76
  55	  77
  55	  80
  55	  83
  55	  84
  55	  85
  55	  91
  55	  93
  55	  96
  55	  97
  55	  98
  55	 104
  55	 107
  55	 110
  55	 115
  55	 119
  56	  57
  56	  61
  56	  63
  56	  69
  56	  70
  56	  72
  56	  73
  56	  75
  56	  77
  56	  78
  56	  93
  56	  95
  56	 101
  56	 102
  56	 108
  56	 112
  56	 116
  57	  69
  57	  73
  57	  76
  57	  77
  57	  80
  57	  87
  57	  89
  57	  90
  57	  93
  57	  96
  57	  97
  57	 101
  57	 105
  57	 109
  57	 114
  57	 115
  57	 119
  58	  59
  58	  60
  58	  66
  58	  69
  58	  75
  58	  78
  58	  79
  58	  81
  58	  87
  58	  91
  58	  92
  58	  93
  58	  95
  58	  96
  58	 102
  58	 103
  58	 106
  58	 107
  58	 111
  58	 112
  58	 113
  58	 115
  58	 118
  59	  61
  59	  65
  59	  67
  59	  68
  59	  69
  59	  74
  59	  80
  59	  84
  59	  87
  59	  90
  59	  92
  59	  93
  59	  94
  59	  97
  59	  99
  59	 105
  59	 107
  59	 110
  59	 114
  59	 117
  60	  62
  60	  67
  60	  69
  60	  70
  60	  72
  60	  73
  60	  78
  60	  79
  60	  80
  60	  84
  60	  85
  60	  90
  60	  93
  60	  94
  60	  95
  60	  97
  60	  98
  60	 102
  60	 103
  60	 107
  60	 112
  60	 113
  60	 114
  60	 116
  60	 117
  61	  62
  61	  64
  61	  65
  61	  67
  61	  71
  61	  73
  61	  75
  61	  76
  61	  79
  61	  86
  61	  87
  61	  88
  61	  90
  61	  91
  61	  92
  61	  94
  61	 101
  61	 103
  61	 108
  61	 113
  61	 119
  62	  70
  62	  77
  62	  83
  62	  85
  62	  86
  62	  89
  62	  97
  62	  98
  62	 101
  62	 103
  62	 107
  62	 108
  62	 114
  62	 116
  63	  64
  63	  65
  63	  67
  63	  72
  63	  76
  63	  81
  63	  82
  63	  88
  63	  99
  63	 100
  63	 103
  63	 104
  63	 107
  63	 114
  63	 117
  64	  68
  64	  71
  64	  76
  64	  77
  64	  79
  64	  82
  64	  85
  64	  86
  64	  87
  64	  88
  64	  91
  64	  94
  64	  96
  64	 105
  64	 110
  64	 117
  65	  66
  65	  73
  65	  78
  65	  83
  65	  84
  65	  86
  65	  90
  65	  97
  65	 102
  65	 106
  65	 109
  65	 110
  65	 112
  65	 116
  65	 118
  65	 119
  66	  71
  66	  73
  66	  76
  66	  77
  66	  84
  66	  87
  66	  89
  66	  90
  66	  94
  66	  99
  66	 101
  66	 104
  66	 111
  67	  68
  67	  73
  67	  78
  67	  82
  67	  87
  67	  93
  67	  96
  67	 102
  67	 104
  67	 105
  67	 109
  68	  71
  68	  81
  68	  83
  68	  85
  68	  88
  68	  89
  68	  98
  68	 101
  68	 104
  68	 107
  68	 112
  68	 113
  68	 115
  68	 118
  68	 119
  69	  76
  69	  77
  69	  81
  69	  82
  69	  85
  69	  94
  69	  95
  69	  96
  69	  99
  69	 105
  69	 106
  69	 107
  69	 109
  69	 115
  69	 118
  70	  72
  70	  76
  70	  77
  70	  81
  70	  83
  70	  84
  70	  85
  70	  87
  70	  88
  70	  91
  70	  92
  70	  94
  70	  96
  70	 100
  70	 101
  70	 102
  70	 103
  70	 105
  70	 107
  70	 108
  70	 111
  70	 113
  70	 114
  70	 119
  71	  75
  71	  80
  71	  83
  71	  84
  71	  93
  71	  95
  71	  96
  71	 101
  71	 106
  71	 108
  71	 115
  71	 117
  72	  73
  72	  81
  72	  84
  72	  85
  72	  87
  72	  90
  72	  91
  72	  94
  72	  97
  72	 100
  72	 105
  72	 106
  72	 109
  72	 118
  73	  77
  73	  79
  73	  81
  73	  86
  73	  88
  73	  93
  73	  97
  73	 101
  73	 103
  73	 109
  73	 113
  73	 116
  73	 117
  74	  75
  74	  77
  74	  78
  74	  80
  74	  83
  74	  86
  74	  87
  74	  93
  74	  96
  74	  98
  74	 101
  74	 102
  74	 106
  74	 107
  74	 110
  74	 111
  74	 112
  75	  85
  75	  87
  75	  89
  75	  90
  75	  97
  75	 105
  75	 118
  75	 119
  76	  80
  76	  83
  76	  85
  76	  88
  76	  90
  76	  94
  76	  99
  76	 100
  76	 101
  76	 102
  76	 105
  76	 109
  76	 114
  76	 116
  76	 117
  76	 119
  77	  78
  77	  80
  77	  90
  77	  91
  77	 107
  77	 109
  77	 112
  77	 117
  78	  80
  78	  81
  78	  89
  78	  95
  78	  96
  78	  99
  78	 100
  78	 104
  78	 106
  78	 107
  78	 109
  78	 116
  78	 118
  79	  85
  79	  86
  79	  87
  79	  88
  79	  92
  79	  95
  79	  97
  79	  98
  79	 100
  79	 104
  79	 105
  79	 107
  79	 111
  79	 112
  80	  81
  80	  86
  80	  89
  80	  91
  80	  98
  80	 101
  80	 103
  80	 105
  80	 107
  80	 111
  81	  82
  81	  83
  81	  89
  81	  92
  81	  99
  81	 101
  81	 102
  81	 104
  81	 105
  81	 106
  81	 113
  81	 115
  82	  86
  82	  88
  82	  90
  82	  97
  82	 102
  82	 110
  83	  92
  83	  98
  83	 101
  83	 111
  83	 118
  84	  88
  84	  92
  84	  96
  84	  97
  84	 101
  84	 103
  84	 108
  84	 111
  84	 112
  84	 113
  84	 116
  84	 119
  85	  88
  85	  93
  85	  94
  85	  95
  85	 113
  85	 116
  86	  87
  86	  92
  86	  96
  86	  99
  86	 114
  86	 116
  86	 118
  87	  97
  87	 102
  87	 104
  87	 110
  87	 112
  87	 113
  87	 115
  87	 118
  88	  89
  88	  91
  88	  92
  88	  95
  88	 107
  88	 109
  88	 118
  88	 119
  89	  98
  89	 100
  89	 102
  89	 107
  89	 110
  89	 114
  89	 115
  89	 118
  89	 119
  90	  91
  90	  98
  90	 100
  90	 101
  90	 107
  90	 108
  90	 111
  90	 112
  90	 116
  90	 117
  90	 119
  91	  94
  91	 100
  91	 102
  91	 104
  91	 109
  91	 117
  91	 118
  92	  94
  92	  97
  92	  98
  92	 102
  92	 103
  92	 104
  92	 110
  92	 112
  93	  94
  93	 105
  93	 112
  93	 114
  93	 117
  94	  98
  94	 105
  94	 111
  94	 114
  94	 118
  95	 102
  95	 107
  95	 109
  95	 111
  95	 115
  96	  98
  96	 103
  96	 106
  96	 107
  96	 108
  96	 110
  96	 114
  96	 115
  96	 117
  96	 119
  97	 102
  97	 104
  97	 105
  97	 107
  97	 109
  97	 117
  97	 119
  98	  99
  98	 105
  98	 111
  98	 112
  98	 113
  98	 114
  98	 116
  98	 117
  98	 119
  99	 100
  99	 101
  99	 102
  99	 110
  99	 115
  99	 118
 100	 101
 100	 105
 100	 106
 100	 114
 101	 108
 101	 115
 102	 103
 102	 105
 102	 106
 102	 107
 102	 111
 103	 105
 103	 107
 103	 112
 103	 118
 104	 105
 104	 108
 104	 110
 104	 114
 104	 115
 104	 117
 105	 107
 105	 111
 105	 113
 105	 115
 106	 112
 106	 113
 106	 116
 107	 109
 107	 110
 107	 115
 107	 116
 107	 117
 107	 119
 108	 111
 109	 117
 110	 116
 110	 117
 111	 113
 111	 116
 112	 114
 112	 115
 112	 117
 113	 114
 114	 117
 114	 119
 115	 116
 115	 117
 115	 118
;
